4 
5  15 32 47 
6  02 17 32 47 59 
7  14 29 44 59 
8  14 29 44 59 
9  14 29 44 59 
10  14 29 44 59 
11  14 29 44 59 
12  14 29 44 59 
13  15 30 45 
14  00 15 30 45 59 
15  14 29 44 59 
16  14 29 44 59 
17  14 29 44 59 
18  14 29 44 
19  00 14 29 44 
20  01 16 31 46 
21  01 16 31 46 
22  01 16 31 46 
23  02 21 38 
0 
